(set-info :smt-lib-version 2.6)
(set-logic QF_S)
(set-info :source |
Generated by: Hongjian Jiang, Oliver Markgraf, Daniel Stan, Anthony W. Lin, Philipp Ruemmer
Generated on: 2025-04-11
Application: Using String Solvers to solve RMC problems encoded as CHC over Strings
Target solver: cvc5, OSTRICH, Z3, Z3alpha, Z3-noodler
Time limit: 60.0
Benchmarks are extracted by running HornStr https://arg-git.informatik.uni-kl.de/pub/string-chc-lib on all benchmarks
provided in the repository and gathering the string queries sent to the string solvers.
|)
(declare-fun varout () String)
(assert (let ((a!1 (re.union (re.union (re.union (str.to_re "E") (str.to_re "O"))
                               (str.to_re "1"))
                     (str.to_re "W"))))
(let ((a!2 (re.* (re.union (re.union a!1 (str.to_re "0")) (str.to_re "B")))))
  (str.in_re varout a!2))))
(declare-fun varin () String)
(assert (let ((a!1 (re.union (re.union (re.union (str.to_re "E") (str.to_re "O"))
                               (str.to_re "1"))
                     (str.to_re "W"))))
(let ((a!2 (re.* (re.union (re.union a!1 (str.to_re "0")) (str.to_re "B")))))
  (str.in_re varin a!2))))
(declare-fun X () String)
(declare-fun isin () Bool)
(declare-fun isout () Bool)
(assert (let ((a!1 (re.++ (str.to_re "0")
                  (re.++ (re.* (str.to_re "0")) (str.to_re "B"))))
      (a!3 (re.union (str.to_re "")
                     (re.++ (str.to_re "1") (re.* (str.to_re "1"))))))
(let ((a!2 (re.++ (str.to_re "O")
                  (re.++ (re.* (str.to_re "0")) (re.union (str.to_re "B") a!1))))
      (a!5 (re.union (str.to_re "") (re.++ (re.* (str.to_re "1")) a!3))))
(let ((a!4 (re.++ a!2 (re.++ (re.* (str.to_re "1")) a!3)))
      (a!6 (re.++ (str.to_re "0") (re.++ (re.* (str.to_re "0")) a!5))))
(let ((a!7 (re.++ (re.++ (str.to_re "E") (str.to_re "W"))
                  (re.++ (re.* (str.to_re "0")) (re.union a!5 a!6)))))
  (and (str.in_re X (re.union a!4 a!7)) true (= X varin) isin (not isout)))))))
(assert (let ((a!1 (re.union (re.union (re.union (str.to_re "E") (str.to_re "O"))
                               (str.to_re "1"))
                     (str.to_re "W"))))
(let ((a!2 (re.* (re.union (re.union a!1 (str.to_re "0")) (str.to_re "B")))))
(let ((a!3 (re.++ (re.union (re.union a!1 (str.to_re "0")) (str.to_re "B")) a!2)))
  (str.in_re varin (re.++ a!2 (re.union (str.to_re "") a!3)))))))
(check-sat)
